networks/zoo_28_37/zoo_28_37.sol
<?xml version = "1.0" encoding="UTF-8" standalone="yes"?>
<CPLEXSolution version="1.2">
 <header
   problemName="networks/zoo_28_37/zoo_28_37.lp"
   solutionName="incumbent"
   solutionIndex="-1"
   objectiveValue="14"
   solutionTypeValue="3"
   solutionTypeString="primal"
   solutionStatusValue="101"
   solutionStatusString="integer optimal solution"
   solutionMethodString="mip"
   primalFeasible="1"
   dualFeasible="1"
   MIPNodes="0"
   MIPIterations="55"
   writeLevel="3"/>
 <quality
   epInt="1.0000000000000001e-05"
   epRHS="9.9999999999999995e-07"
   maxIntInfeas="0"
   maxPrimalInfeas="0"
   maxX="3"
   maxSlack="9"/>
 <variables>
  <variable name="Y(1,1)" index="0" value="1"/>
  <variable name="Y(5,10)" index="121" value="1"/>
  <variable name="Y(6,13)" index="152" value="1"/>
  <variable name="Y(8,2)" index="197" value="1"/>
  <variable name="Y(12,3)" index="310" value="1"/>
  <variable name="Y(15,11)" index="402" value="1"/>
  <variable name="Y(17,14)" index="461" value="1"/>
  <variable name="Y(21,4)" index="563" value="1"/>
  <variable name="Y(22,5)" index="592" value="1"/>
  <variable name="Y(23,6)" index="621" value="1"/>
  <variable name="Y(24,8)" index="651" value="1"/>
  <variable name="Y(25,9)" index="680" value="1"/>
  <variable name="Y(28,12)" index="767" value="1"/>
  <variable name="Y(36,7)" index="986" value="1"/>
  <variable name="X(1,15,1)" index="1036" value="1"/>
  <variable name="X(2,16,8)" index="1080" value="1"/>
  <variable name="X(3,7,6)" index="1115" value="1"/>
  <variable name="X(3,17,12)" index="1158" value="1"/>
  <variable name="X(4,7,8)" index="1191" value="1"/>
  <variable name="X(4,18,21)" index="1241" value="1"/>
  <variable name="X(5,8,17)" index="1274" value="1"/>
  <variable name="X(5,19,22)" index="1316" value="1"/>
  <variable name="X(6,20,23)" index="1354" value="1"/>
  <variable name="X(7,1,1)" index="1369" value="1"/>
  <variable name="X(7,2,8)" index="1413" value="1"/>
  <variable name="X(7,3,12)" index="1454" value="1"/>
  <variable name="X(7,4,21)" index="1500" value="1"/>
  <variable name="X(7,6,23)" index="1539" value="1"/>
  <variable name="X(7,8,6)" index="1559" value="1"/>
  <variable name="X(7,9,25)" index="1615" value="1"/>
  <variable name="X(7,10,5)" index="1632" value="1"/>
  <variable name="X(7,11,15)" index="1679" value="1"/>
  <variable name="X(7,12,28)" index="1729" value="1"/>
  <variable name="X(7,21,36)" index="1774" value="1"/>
  <variable name="X(8,5,22)" index="1797" value="1"/>
  <variable name="X(8,7,36)" index="1848" value="1"/>
  <variable name="X(8,13,6)" index="1855" value="1"/>
  <variable name="X(8,14,17)" index="1903" value="1"/>
  <variable name="X(8,22,24)" index="1947" value="1"/>
  <variable name="X(9,23,25)" index="1985" value="1"/>
  <variable name="X(10,24,5)" index="2002" value="1"/>
  <variable name="X(11,25,15)" index="2049" value="1"/>
  <variable name="X(12,26,28)" index="2099" value="1"/>
  <variable name="X(13,8,36)" index="2144" value="1"/>
  <variable name="X(13,27,6)" index="2151" value="1"/>
  <variable name="X(14,28,17)" index="2199" value="1"/>
  <variable name="C(1,1)" index="2222" value="1"/>
  <variable name="C(5,10)" index="2234" value="1"/>
  <variable name="C(6,7)" index="2236" value="1"/>
  <variable name="C(6,8)" index="2237" value="2"/>
  <variable name="C(6,13)" index="2238" value="3"/>
  <variable name="C(8,7)" index="2244" value="1"/>
  <variable name="C(8,2)" index="2245" value="2"/>
  <variable name="C(12,3)" index="2261" value="1"/>
  <variable name="C(15,11)" index="2272" value="1"/>
  <variable name="C(17,8)" index="2277" value="1"/>
  <variable name="C(17,14)" index="2278" value="2"/>
  <variable name="C(21,4)" index="2286" value="1"/>
  <variable name="C(22,5)" index="2289" value="1"/>
  <variable name="C(23,6)" index="2291" value="1"/>
  <variable name="C(25,9)" index="2295" value="1"/>
  <variable name="C(28,12)" index="2301" value="1"/>
  <variable name="C(36,8)" index="2327" value="1"/>
  <variable name="C(36,7)" index="2328" value="2"/>
 </variables>
</CPLEXSolution>
